c preprocessed version of dimacs_queen6_6, 29 vertices, 193 edges
p td 29 193
0 1
0 16
0 13
0 5
0 12
0 8
0 15
0 10
0 2
0 18
0 25
1 2
1 9
1 16
1 14
8 1
1 20
1 24
1 19
15 1
4 1
6 1
13 1
10 1
1 17
3 2
5 2
7 2
15 2
13 2
10 2
2 20
2 21
2 14
2 24
2 9
2 16
2 18
2 25
4 3
6 3
3 11
3 5
3 7
3 9
3 16
3 12
3 23
4 5
4 12
4 14
4 23
4 25
4 6
4 13
4 10
4 17
6 5
13 5
5 14
5 25
5 12
5 7
5 9
5 16
5 11
5 24
6 7
6 11
6 18
6 24
6 19
6 13
6 10
6 17
8 7
13 7
10 7
7 18
7 19
7 11
7 23
7 9
7 16
7 14
8 9
8 11
8 17
8 10
8 23
8 15
8 20
8 19
10 9
17 9
9 22
9 18
9 16
9 20
9 19
10 11
10 18
10 22
10 23
10 25
13 10
10 17
12 11
11 23
11 14
11 18
11 20
11 22
11 24
13 12
12 24
12 14
12 18
12 20
12 22
12 23
13 14
13 20
13 21
13 17
15 14
14 25
14 24
14 18
14 20
14 22
15 16
15 22
15 24
15 21
15 17
17 16
16 20
16 25
16 22
16 21
17 18
17 22
17 21
18 19
18 20
18 22
18 25
20 19
22 19
23 19
24 19
25 19
19 21
20 21
20 25
20 22
22 21
23 21
24 21
25 21
23 24
23 25
24 25
26 13
26 2
26 20
26 21
26 27
26 4
26 3
26 12
26 23
27 9
27 22
27 5
27 11
27 24
28 26
28 27
28 3
28 7
28 9
28 11
28 13
28 14
28 17
28 18
28 19
28 21
28 23
28 24
28 25
